NAME decomposition_srl_ilp
* Max problem is converted into Min one
ROWS
 N  OBJ
 L  constraint1_4830
 L  constraint1_4831
 L  constraint1_4832
 L  constraint1_3890
 L  constraint1_6433
 L  constraint1_6434
 L  constraint1_6431
 L  constraint1_6432
 L  constraint1_6430
 L  constraint1_620
 L  constraint1_5120
 L  constraint1_5510
 L  constraint1_7480
 L  constraint1_7486
 L  constraint1_7481
 L  constraint1_5790
 L  constraint1_4141
 L  constraint1_4140
 L  constraint1_2990
 L  constraint1_7500
 L  constraint2_4830
 L  constraint2_4831
 L  constraint2_4832
 L  constraint2_4833
 L  constraint2_3890
 L  constraint2_3891
 L  constraint2_3892
 L  constraint2_3893
 L  constraint2_6430
 L  constraint2_6431
 L  constraint2_6432
 L  constraint2_6433
 L  constraint2_620
 L  constraint2_621
 L  constraint2_622
 L  constraint2_623
 L  constraint2_5120
 L  constraint2_5121
 L  constraint2_5122
 L  constraint2_5123
 L  constraint2_5510
 L  constraint2_5511
 L  constraint2_5512
 L  constraint2_5513
 L  constraint2_7480
 L  constraint2_7481
 L  constraint2_7482
 L  constraint2_7483
 L  constraint2_5790
 L  constraint2_5791
 L  constraint2_5792
 L  constraint2_5793
 L  constraint2_4140
 L  constraint2_4141
 L  constraint2_4142
 L  constraint2_4143
 L  constraint2_2990
 L  constraint2_2991
 L  constraint2_2992
 L  constraint2_2993
 L  constraint2_7500
 L  constraint2_7501
 L  constraint2_7502
 L  constraint2_7503
COLUMNS
    MARKER    'MARKER'                 'INTORG'
    Z_483_0_0  OBJ       -2.2526659736453721e-04
    Z_483_0_0  constraint1_4830  1
    Z_483_0_0  constraint2_4830  1
    Z_483_0_1  OBJ       -2.7538642512018076e-03
    Z_483_0_1  constraint1_4830  1
    Z_483_0_1  constraint2_4831  1
    Z_483_0_2  OBJ       -6.9301237004430272e-01
    Z_483_0_2  constraint1_4830  1
    Z_483_0_2  constraint2_4832  1
    Z_483_0_3  OBJ       -9.2006028167557544e-04
    Z_483_0_3  constraint1_4830  1
    Z_483_0_3  constraint2_4833  1
    Z_483_0_4  OBJ       -2.0308843882545538e-01
    Z_483_0_4  constraint1_4830  1
    Z_483_1_0  OBJ       -2.4190998586147948e-02
    Z_483_1_0  constraint1_4831  1
    Z_483_1_0  constraint2_4830  1
    Z_483_1_1  OBJ       -3.2822819798140411e-02
    Z_483_1_1  constraint1_4831  1
    Z_483_1_1  constraint2_4831  1
    Z_483_1_2  OBJ       -2.4404814022776854e-02
    Z_483_1_2  constraint1_4831  1
    Z_483_1_2  constraint2_4832  1
    Z_483_1_3  OBJ       -9.1060252231095571e-03
    Z_483_1_3  constraint1_4831  1
    Z_483_1_3  constraint2_4833  1
    Z_483_1_4  OBJ       -8.0947534236982532e-01
    Z_483_1_4  constraint1_4831  1
    Z_483_2_0  OBJ       -6.4260862604474100e-01
    Z_483_2_0  constraint1_4832  1
    Z_483_2_0  constraint2_4830  1
    Z_483_2_1  OBJ       -9.8653075504412227e-02
    Z_483_2_1  constraint1_4832  1
    Z_483_2_1  constraint2_4831  1
    Z_483_2_2  OBJ       -5.7203739411771015e-03
    Z_483_2_2  constraint1_4832  1
    Z_483_2_2  constraint2_4832  1
    Z_483_2_3  OBJ       -4.7403544453326465e-02
    Z_483_2_3  constraint1_4832  1
    Z_483_2_3  constraint2_4833  1
    Z_483_2_4  OBJ       -1.0561438005634317e-01
    Z_483_2_4  constraint1_4832  1
    Z_389_0_0  OBJ       -3.3041117447076707e-03
    Z_389_0_0  constraint1_3890  1
    Z_389_0_0  constraint2_3890  1
    Z_389_0_1  OBJ       -1.0126934232375249e-03
    Z_389_0_1  constraint1_3890  1
    Z_389_0_1  constraint2_3891  1
    Z_389_0_2  OBJ       -3.2870132365105890e-03
    Z_389_0_2  constraint1_3890  1
    Z_389_0_2  constraint2_3892  1
    Z_389_0_3  OBJ       -4.1613525711903399e-01
    Z_389_0_3  constraint1_3890  1
    Z_389_0_3  constraint2_3893  1
    Z_389_0_4  OBJ       -4.7626092447651025e-01
    Z_389_0_4  constraint1_3890  1
    Z_643_3_0  OBJ       -3.3096990686374036e-03
    Z_643_3_0  constraint1_6433  1
    Z_643_3_0  constraint2_6430  1
    Z_643_3_1  OBJ       -6.4828267161115463e-02
    Z_643_3_1  constraint1_6433  1
    Z_643_3_1  constraint2_6431  1
    Z_643_3_2  OBJ       -8.6488953948546377e-04
    Z_643_3_2  constraint1_6433  1
    Z_643_3_2  constraint2_6432  1
    Z_643_3_3  OBJ       -4.3779837232994223e-01
    Z_643_3_3  constraint1_6433  1
    Z_643_3_3  constraint2_6433  1
    Z_643_3_4  OBJ       -3.9319877190081948e-01
    Z_643_3_4  constraint1_6433  1
    Z_643_4_0  OBJ       -3.3096990686374036e-03
    Z_643_4_0  constraint1_6434  1
    Z_643_4_0  constraint2_6430  1
    Z_643_4_1  OBJ       -6.4828267161115463e-02
    Z_643_4_1  constraint1_6434  1
    Z_643_4_1  constraint2_6431  1
    Z_643_4_2  OBJ       -8.6488953948546377e-04
    Z_643_4_2  constraint1_6434  1
    Z_643_4_2  constraint2_6432  1
    Z_643_4_3  OBJ       -4.3779837232994223e-01
    Z_643_4_3  constraint1_6434  1
    Z_643_4_3  constraint2_6433  1
    Z_643_4_4  OBJ       -3.9319877190081948e-01
    Z_643_4_4  constraint1_6434  1
    Z_643_1_0  OBJ       -6.4034263077407307e-03
    Z_643_1_0  constraint1_6431  1
    Z_643_1_0  constraint2_6430  1
    Z_643_1_1  OBJ       -4.7051550655204796e-03
    Z_643_1_1  constraint1_6431  1
    Z_643_1_1  constraint2_6431  1
    Z_643_1_2  OBJ       -3.2757382306590364e-03
    Z_643_1_2  constraint1_6431  1
    Z_643_1_2  constraint2_6432  1
    Z_643_1_3  OBJ       -1.5046583382559273e-01
    Z_643_1_3  constraint1_6431  1
    Z_643_1_3  constraint2_6433  1
    Z_643_1_4  OBJ       -7.3514984657048699e-01
    Z_643_1_4  constraint1_6431  1
    Z_643_2_0  OBJ       -1.9588178152579530e-03
    Z_643_2_0  constraint1_6432  1
    Z_643_2_0  constraint2_6430  1
    Z_643_2_1  OBJ       -5.5271927459935909e-03
    Z_643_2_1  constraint1_6432  1
    Z_643_2_1  constraint2_6431  1
    Z_643_2_2  OBJ       -2.0178984307891192e-02
    Z_643_2_2  constraint1_6432  1
    Z_643_2_2  constraint2_6432  1
    Z_643_2_3  OBJ       -7.4285661051569876e-02
    Z_643_2_3  constraint1_6432  1
    Z_643_2_3  constraint2_6433  1
    Z_643_2_4  OBJ       -7.9804934407928751e-01
    Z_643_2_4  constraint1_6432  1
    Z_643_0_0  OBJ       -1.7410058509114153e-04
    Z_643_0_0  constraint1_6430  1
    Z_643_0_0  constraint2_6430  1
    Z_643_0_1  OBJ       -1.0682006245686165e-03
    Z_643_0_1  constraint1_6430  1
    Z_643_0_1  constraint2_6431  1
    Z_643_0_2  OBJ       -4.5407455855693991e-03
    Z_643_0_2  constraint1_6430  1
    Z_643_0_2  constraint2_6432  1
    Z_643_0_3  OBJ       -7.3803198698975028e-03
    Z_643_0_3  constraint1_6430  1
    Z_643_0_3  constraint2_6433  1
    Z_643_0_4  OBJ       -8.8683663333487339e-01
    Z_643_0_4  constraint1_6430  1
    Z_62_0_0  OBJ       -2.2482888419307840e-03
    Z_62_0_0  constraint1_620  1
    Z_62_0_0  constraint2_620  1
    Z_62_0_1  OBJ       -6.1453488925540270e-02
    Z_62_0_1  constraint1_620  1
    Z_62_0_1  constraint2_621  1
    Z_62_0_2  OBJ       -5.8795443155634430e-03
    Z_62_0_2  constraint1_620  1
    Z_62_0_2  constraint2_622  1
    Z_62_0_3  OBJ       -6.5269410392551674e-01
    Z_62_0_3  constraint1_620  1
    Z_62_0_3  constraint2_623  1
    Z_62_0_4  OBJ       -1.7772457399144892e-01
    Z_62_0_4  constraint1_620  1
    Z_512_0_0  OBJ       -6.3528219694451524e-03
    Z_512_0_0  constraint1_5120  1
    Z_512_0_0  constraint2_5120  1
    Z_512_0_1  OBJ       -9.9668634587982748e-03
    Z_512_0_1  constraint1_5120  1
    Z_512_0_1  constraint2_5121  1
    Z_512_0_2  OBJ       -4.8981878965224422e-03
    Z_512_0_2  constraint1_5120  1
    Z_512_0_2  constraint2_5122  1
    Z_512_0_3  OBJ       -4.0074357519433484e-01
    Z_512_0_3  constraint1_5120  1
    Z_512_0_3  constraint2_5123  1
    Z_512_0_4  OBJ       -4.7803855148089930e-01
    Z_512_0_4  constraint1_5120  1
    Z_551_0_0  OBJ       -1.3608990038576120e-03
    Z_551_0_0  constraint1_5510  1
    Z_551_0_0  constraint2_5510  1
    Z_551_0_1  OBJ       -6.2353385525089535e-03
    Z_551_0_1  constraint1_5510  1
    Z_551_0_1  constraint2_5511  1
    Z_551_0_2  OBJ       -1.2503743866823494e-02
    Z_551_0_2  constraint1_5510  1
    Z_551_0_2  constraint2_5512  1
    Z_551_0_3  OBJ       -1.8223229810124247e-01
    Z_551_0_3  constraint1_5510  1
    Z_551_0_3  constraint2_5513  1
    Z_551_0_4  OBJ       -6.9766772047556758e-01
    Z_551_0_4  constraint1_5510  1
    Z_748_0_0  OBJ       -3.8488547916367494e-01
    Z_748_0_0  constraint1_7480  1
    Z_748_0_0  constraint2_7480  1
    Z_748_0_1  OBJ       -2.9600466195600576e-02
    Z_748_0_1  constraint1_7480  1
    Z_748_0_1  constraint2_7481  1
    Z_748_0_2  OBJ       -4.4092086567143439e-03
    Z_748_0_2  constraint1_7480  1
    Z_748_0_2  constraint2_7482  1
    Z_748_0_3  OBJ       -2.6275490418569700e-03
    Z_748_0_3  constraint1_7480  1
    Z_748_0_3  constraint2_7483  1
    Z_748_0_4  OBJ       -4.7847729694215307e-01
    Z_748_0_4  constraint1_7480  1
    Z_748_6_0  OBJ       -4.9077818664295162e-04
    Z_748_6_0  constraint1_7486  1
    Z_748_6_0  constraint2_7480  1
    Z_748_6_1  OBJ       -8.8654893856247321e-04
    Z_748_6_1  constraint1_7486  1
    Z_748_6_1  constraint2_7481  1
    Z_748_6_2  OBJ       -8.4803452819758907e-01
    Z_748_6_2  constraint1_7486  1
    Z_748_6_2  constraint2_7482  1
    Z_748_6_3  OBJ       -1.6179064002589177e-03
    Z_748_6_3  constraint1_7486  1
    Z_748_6_3  constraint2_7483  1
    Z_748_6_4  OBJ       -4.8970238276946597e-02
    Z_748_6_4  constraint1_7486  1
    Z_748_1_0  OBJ       -2.4192374231443079e-02
    Z_748_1_0  constraint1_7481  1
    Z_748_1_0  constraint2_7480  1
    Z_748_1_1  OBJ       -2.8709934402404175e-02
    Z_748_1_1  constraint1_7481  1
    Z_748_1_1  constraint2_7481  1
    Z_748_1_2  OBJ       -2.2922522903130998e-03
    Z_748_1_2  constraint1_7481  1
    Z_748_1_2  constraint2_7482  1
    Z_748_1_3  OBJ       -7.4573904516017642e-01
    Z_748_1_3  constraint1_7481  1
    Z_748_1_3  constraint2_7483  1
    Z_748_1_4  OBJ       -9.9066393915663284e-02
    Z_748_1_4  constraint1_7481  1
    Z_579_0_0  OBJ       -8.9632128825638485e-04
    Z_579_0_0  constraint1_5790  1
    Z_579_0_0  constraint2_5790  1
    Z_579_0_1  OBJ       -9.9742145244683791e-02
    Z_579_0_1  constraint1_5790  1
    Z_579_0_1  constraint2_5791  1
    Z_579_0_2  OBJ       -2.1944826428599998e-03
    Z_579_0_2  constraint1_5790  1
    Z_579_0_2  constraint2_5792  1
    Z_579_0_3  OBJ       -6.0829251219711533e-01
    Z_579_0_3  constraint1_5790  1
    Z_579_0_3  constraint2_5793  1
    Z_579_0_4  OBJ       -1.8887453862708450e-01
    Z_579_0_4  constraint1_5790  1
    Z_414_1_0  OBJ       -1.0433266350318106e-03
    Z_414_1_0  constraint1_4141  1
    Z_414_1_0  constraint2_4140  1
    Z_414_1_1  OBJ       -3.5863171483540657e-04
    Z_414_1_1  constraint1_4141  1
    Z_414_1_1  constraint2_4141  1
    Z_414_1_2  OBJ       -8.1993528061047682e-01
    Z_414_1_2  constraint1_4141  1
    Z_414_1_2  constraint2_4142  1
    Z_414_1_3  OBJ       -5.5334294332871079e-03
    Z_414_1_3  constraint1_4141  1
    Z_414_1_3  constraint2_4143  1
    Z_414_1_4  OBJ       -7.3129331606368794e-02
    Z_414_1_4  constraint1_4141  1
    Z_414_0_0  OBJ       -6.9013226656057846e-03
    Z_414_0_0  constraint1_4140  1
    Z_414_0_0  constraint2_4140  1
    Z_414_0_1  OBJ       -8.2766718456704871e-02
    Z_414_0_1  constraint1_4140  1
    Z_414_0_1  constraint2_4141  1
    Z_414_0_2  OBJ       -2.5077760578818904e-03
    Z_414_0_2  constraint1_4140  1
    Z_414_0_2  constraint2_4142  1
    Z_414_0_3  OBJ       -6.3742925209403833e-01
    Z_414_0_3  constraint1_4140  1
    Z_414_0_3  constraint2_4143  1
    Z_414_0_4  OBJ       -1.7039493072576917e-01
    Z_414_0_4  constraint1_4140  1
    Z_299_0_0  OBJ       -5.6517291227293964e-03
    Z_299_0_0  constraint1_2990  1
    Z_299_0_0  constraint2_2990  1
    Z_299_0_1  OBJ       -1.6700264192845590e-02
    Z_299_0_1  constraint1_2990  1
    Z_299_0_1  constraint2_2991  1
    Z_299_0_2  OBJ       -9.5750196308721693e-03
    Z_299_0_2  constraint1_2990  1
    Z_299_0_2  constraint2_2992  1
    Z_299_0_3  OBJ       -6.1424637865633624e-01
    Z_299_0_3  constraint1_2990  1
    Z_299_0_3  constraint2_2993  1
    Z_299_0_4  OBJ       -2.5382660839721660e-01
    Z_299_0_4  constraint1_2990  1
    Z_750_0_0  OBJ       -7.6802087426178071e-04
    Z_750_0_0  constraint1_7500  1
    Z_750_0_0  constraint2_7500  1
    Z_750_0_1  OBJ       -8.6294072526777181e-04
    Z_750_0_1  constraint1_7500  1
    Z_750_0_1  constraint2_7501  1
    Z_750_0_2  OBJ       -6.9604536028390485e-01
    Z_750_0_2  constraint1_7500  1
    Z_750_0_2  constraint2_7502  1
    Z_750_0_3  OBJ       -1.9744266584757323e-03
    Z_750_0_3  constraint1_7500  1
    Z_750_0_3  constraint2_7503  1
    Z_750_0_4  OBJ       -2.0034925145808974e-01
    Z_750_0_4  constraint1_7500  1
    MARKER    'MARKER'                 'INTEND'
RHS
    RHS1      constraint1_4830  1
    RHS1      constraint1_4831  1
    RHS1      constraint1_4832  1
    RHS1      constraint1_3890  1
    RHS1      constraint1_6433  1
    RHS1      constraint1_6434  1
    RHS1      constraint1_6431  1
    RHS1      constraint1_6432  1
    RHS1      constraint1_6430  1
    RHS1      constraint1_620  1
    RHS1      constraint1_5120  1
    RHS1      constraint1_5510  1
    RHS1      constraint1_7480  1
    RHS1      constraint1_7486  1
    RHS1      constraint1_7481  1
    RHS1      constraint1_5790  1
    RHS1      constraint1_4141  1
    RHS1      constraint1_4140  1
    RHS1      constraint1_2990  1
    RHS1      constraint1_7500  1
    RHS1      constraint2_4830  1
    RHS1      constraint2_4831  1
    RHS1      constraint2_4832  1
    RHS1      constraint2_4833  1
    RHS1      constraint2_3890  1
    RHS1      constraint2_3891  1
    RHS1      constraint2_3892  1
    RHS1      constraint2_3893  1
    RHS1      constraint2_6430  1
    RHS1      constraint2_6431  1
    RHS1      constraint2_6432  1
    RHS1      constraint2_6433  1
    RHS1      constraint2_620  1
    RHS1      constraint2_621  1
    RHS1      constraint2_622  1
    RHS1      constraint2_623  1
    RHS1      constraint2_5120  1
    RHS1      constraint2_5121  1
    RHS1      constraint2_5122  1
    RHS1      constraint2_5123  1
    RHS1      constraint2_5510  1
    RHS1      constraint2_5511  1
    RHS1      constraint2_5512  1
    RHS1      constraint2_5513  1
    RHS1      constraint2_7480  1
    RHS1      constraint2_7481  1
    RHS1      constraint2_7482  1
    RHS1      constraint2_7483  1
    RHS1      constraint2_5790  1
    RHS1      constraint2_5791  1
    RHS1      constraint2_5792  1
    RHS1      constraint2_5793  1
    RHS1      constraint2_4140  1
    RHS1      constraint2_4141  1
    RHS1      constraint2_4142  1
    RHS1      constraint2_4143  1
    RHS1      constraint2_2990  1
    RHS1      constraint2_2991  1
    RHS1      constraint2_2992  1
    RHS1      constraint2_2993  1
    RHS1      constraint2_7500  1
    RHS1      constraint2_7501  1
    RHS1      constraint2_7502  1
    RHS1      constraint2_7503  1
BOUNDS
 UP BND1      Z_483_0_0  1
 UP BND1      Z_483_0_1  1
 UP BND1      Z_483_0_2  1
 UP BND1      Z_483_0_3  1
 UP BND1      Z_483_0_4  1
 UP BND1      Z_483_1_0  1
 UP BND1      Z_483_1_1  1
 UP BND1      Z_483_1_2  1
 UP BND1      Z_483_1_3  1
 UP BND1      Z_483_1_4  1
 UP BND1      Z_483_2_0  1
 UP BND1      Z_483_2_1  1
 UP BND1      Z_483_2_2  1
 UP BND1      Z_483_2_3  1
 UP BND1      Z_483_2_4  1
 UP BND1      Z_389_0_0  1
 UP BND1      Z_389_0_1  1
 UP BND1      Z_389_0_2  1
 UP BND1      Z_389_0_3  1
 UP BND1      Z_389_0_4  1
 UP BND1      Z_643_3_0  1
 UP BND1      Z_643_3_1  1
 UP BND1      Z_643_3_2  1
 UP BND1      Z_643_3_3  1
 UP BND1      Z_643_3_4  1
 UP BND1      Z_643_4_0  1
 UP BND1      Z_643_4_1  1
 UP BND1      Z_643_4_2  1
 UP BND1      Z_643_4_3  1
 UP BND1      Z_643_4_4  1
 UP BND1      Z_643_1_0  1
 UP BND1      Z_643_1_1  1
 UP BND1      Z_643_1_2  1
 UP BND1      Z_643_1_3  1
 UP BND1      Z_643_1_4  1
 UP BND1      Z_643_2_0  1
 UP BND1      Z_643_2_1  1
 UP BND1      Z_643_2_2  1
 UP BND1      Z_643_2_3  1
 UP BND1      Z_643_2_4  1
 UP BND1      Z_643_0_0  1
 UP BND1      Z_643_0_1  1
 UP BND1      Z_643_0_2  1
 UP BND1      Z_643_0_3  1
 UP BND1      Z_643_0_4  1
 UP BND1      Z_62_0_0  1
 UP BND1      Z_62_0_1  1
 UP BND1      Z_62_0_2  1
 UP BND1      Z_62_0_3  1
 UP BND1      Z_62_0_4  1
 UP BND1      Z_512_0_0  1
 UP BND1      Z_512_0_1  1
 UP BND1      Z_512_0_2  1
 UP BND1      Z_512_0_3  1
 UP BND1      Z_512_0_4  1
 UP BND1      Z_551_0_0  1
 UP BND1      Z_551_0_1  1
 UP BND1      Z_551_0_2  1
 UP BND1      Z_551_0_3  1
 UP BND1      Z_551_0_4  1
 UP BND1      Z_748_0_0  1
 UP BND1      Z_748_0_1  1
 UP BND1      Z_748_0_2  1
 UP BND1      Z_748_0_3  1
 UP BND1      Z_748_0_4  1
 UP BND1      Z_748_6_0  1
 UP BND1      Z_748_6_1  1
 UP BND1      Z_748_6_2  1
 UP BND1      Z_748_6_3  1
 UP BND1      Z_748_6_4  1
 UP BND1      Z_748_1_0  1
 UP BND1      Z_748_1_1  1
 UP BND1      Z_748_1_2  1
 UP BND1      Z_748_1_3  1
 UP BND1      Z_748_1_4  1
 UP BND1      Z_579_0_0  1
 UP BND1      Z_579_0_1  1
 UP BND1      Z_579_0_2  1
 UP BND1      Z_579_0_3  1
 UP BND1      Z_579_0_4  1
 UP BND1      Z_414_1_0  1
 UP BND1      Z_414_1_1  1
 UP BND1      Z_414_1_2  1
 UP BND1      Z_414_1_3  1
 UP BND1      Z_414_1_4  1
 UP BND1      Z_414_0_0  1
 UP BND1      Z_414_0_1  1
 UP BND1      Z_414_0_2  1
 UP BND1      Z_414_0_3  1
 UP BND1      Z_414_0_4  1
 UP BND1      Z_299_0_0  1
 UP BND1      Z_299_0_1  1
 UP BND1      Z_299_0_2  1
 UP BND1      Z_299_0_3  1
 UP BND1      Z_299_0_4  1
 UP BND1      Z_750_0_0  1
 UP BND1      Z_750_0_1  1
 UP BND1      Z_750_0_2  1
 UP BND1      Z_750_0_3  1
 UP BND1      Z_750_0_4  1
ENDATA
